n_res = 4;
rc = [ 24, 23, 27, 21 ];
n_tasks = 30;
d = [ 8, 6, 4, 4, 8, 3, 5, 3, 4, 1, 10, 2, 7, 5, 2, 7, 1, 10, 3, 4, 1, 10, 5, 10, 10, 8, 10, 8, 9, 1 ];
rr = [| 5, 0, 7, 0, 0, 3, 10, 5, 4, 3, 0, 0, 1, 6, 0, 3, 5, 0, 0, 0, 3, 9, 0, 9, 9, 4, 8, 4, 9, 8
      | 4, 5, 7, 3, 5, 4, 7, 0, 5, 7, 3, 5, 6, 3, 1, 8, 6, 0, 4, 3, 4, 7, 8, 5, 2, 8, 0, 6, 5, 0
      | 10, 6, 8, 7, 5, 5, 7, 1, 0, 0, 8, 7, 8, 0, 4, 6, 10, 3, 8, 4, 10, 1, 0, 0, 10, 10, 5, 9, 3, 7
      | 10, 0, 0, 5, 0, 10, 2, 0, 10, 10, 0, 0, 5, 9, 8, 3, 0, 2, 5, 5, 0, 10, 5, 8, 0, 10, 2, 0, 4, 6 |];
suc = [ { 9, 20 },
       { 4, 16, 17 },
       { 5, 7, 28 },
       { 5, 6, 18 },
       { 30 },
       { 8, 13, 22 },
       { 10, 26 },
       { 11, 19, 23 },
       { 24 },
       { 16, 21 },
       { 12 },
       { 14, 25 },
       { 14, 15 },
       { 20, 29 },
       { 19, 20, 21 },
       { 18, 29 },
       { 19, 24 },
       { 30 },
       { 25, 27 },
       { 26, 27 },
       { 23 },
       { 23, 24, 25 },
       { 29 },
       { 26, 27 },
       { 28 },
       { 30 },
       { 28 },
       {  },
       {  },
       {  } ];
